Results/Experiment 1 Results/Existing Benchmark/RES_100/i-100-100-5.txt
solutions: 2 nodes: 3  modelTime: 147  solveTime: 30  totalTime: 202  modelSize: 8381  readTime: 25 matchingSize: 50
