Results/Experiment 2 Results/Existing Benchmark/i-100-100-5.lp
clingo version 5.4.0
Reading from tempSRTISolver.lp ...
Solving...
Answer: 1
matched(59,2) matched(65,3) matched(5,4) matched(4,5) matched(22,6) matched(75,7) matched(46,8) matched(43,9) matched(57,10) matched(56,11) matched(62,12) matched(33,13) matched(94,14) matched(28,15) matched(69,16) matched(71,17) matched(68,18) matched(51,19) matched(93,20) matched(58,21) matched(6,22) matched(67,23) matched(87,24) matched(37,25) matched(78,26) matched(96,27) matched(15,28) matched(54,29) matched(83,30) matched(50,31) matched(38,32) matched(13,33) matched(73,34) matched(98,35) matched(80,36) matched(25,37) matched(32,38) matched(85,39) matched(76,40) matched(66,41) matched(44,42) matched(9,43) matched(42,44) matched(77,45) matched(8,46) matched(64,47) matched(92,48) matched(61,49) matched(31,50) matched(19,51) matched(84,52) matched(72,53) matched(29,54) matched(70,55) matched(11,56) matched(10,57) matched(21,58) matched(2,59) matched(79,60) matched(49,61) matched(12,62) matched(1,63) matched(47,64) matched(3,65) matched(41,66) matched(23,67) matched(18,68) matched(16,69) matched(55,70) matched(17,71) matched(53,72) matched(34,73) matched(100,74) matched(7,75) matched(40,76) matched(45,77) matched(26,78) matched(60,79) matched(36,80) matched(86,81) matched(88,82) matched(30,83) matched(52,84) matched(39,85) matched(81,86) matched(24,87) matched(82,88) matched(97,89) matched(99,90) matched(95,91) matched(48,92) matched(20,93) matched(14,94) matched(91,95) matched(27,96) matched(89,97) matched(35,98) matched(90,99) matched(74,100) matched(63,1)
Optimization: 974
Answer: 2
matched(59,2) matched(65,3) matched(5,4) matched(4,5) matched(22,6) matched(11,7) matched(46,8) matched(43,9) matched(57,10) matched(7,11) matched(24,12) matched(33,13) matched(94,14) matched(28,15) matched(69,16) matched(71,17) matched(68,18) matched(51,19) matched(93,20) matched(58,21) matched(6,22) matched(67,23) matched(12,24) matched(37,25) matched(78,26) matched(96,27) matched(15,28) matched(54,29) matched(83,30) matched(50,31) matched(38,32) matched(13,33) matched(73,34) matched(98,35) matched(80,36) matched(25,37) matched(32,38) matched(85,39) matched(76,40) matched(63,41) matched(44,42) matched(9,43) matched(42,44) matched(77,45) matched(8,46) matched(64,47) matched(92,48) matched(61,49) matched(31,50) matched(19,51) matched(84,52) matched(72,53) matched(29,54) matched(70,55) matched(66,56) matched(10,57) matched(21,58) matched(2,59) matched(79,60) matched(49,61) matched(1,62) matched(41,63) matched(47,64) matched(3,65) matched(56,66) matched(23,67) matched(18,68) matched(16,69) matched(55,70) matched(17,71) matched(53,72) matched(34,73) matched(100,74) matched(87,75) matched(40,76) matched(45,77) matched(26,78) matched(60,79) matched(36,80) matched(86,81) matched(88,82) matched(30,83) matched(52,84) matched(39,85) matched(81,86) matched(75,87) matched(82,88) matched(97,89) matched(99,90) matched(95,91) matched(48,92) matched(20,93) matched(14,94) matched(91,95) matched(27,96) matched(89,97) matched(35,98) matched(90,99) matched(74,100) matched(62,1)
Optimization: 958
OPTIMUM FOUND

Models       : 2
  Optimum    : yes
Optimization : 958
Calls        : 1
Time         : 91.779s (Solving: 11.73s 1st Model: 1.35s Unsat: 7.56s)
CPU Time     : 91.773s
